INTERVENTI = {strade, fiumi, scuole, parchi, energia};
COMUNI = {
  perugia,
  terni,
  foligno,
  citta_di_castello,
  spoleto,
  gubbio,
  assisi,
  corciano,
  bastia_umbra,
  orvieto,
  marsciano,
  narni,
  umbertide,
  todi,
  castiglione_del_lago,
  magione,
  gualdo_tardino,
  amelia,
  san_giustino
  };

numero_comuni = 19;
abitanti_per_comune = [161,106,55,38,36,30,27,21,21,19,18,17,16,15,15,14,14,11,11];

strade_tra_comuni = [|
  false,false,false,false,false,false,false,true,true,false,true,false,true,false,false,false,false,false,false    |
  false,false,false,false,true,false,false,false,false,false,false,true,false,false,false,false,false,false,false  |
  false,false,false,false,false,false,true,false,false,false,false,false,false,false,false,false,false,false,false |
  false,false,false,false,false,false,false,false,false,false,false,false,true,false,false,false,false,false,true  |
  false,true,false,false,false,false,false,false,false,false,false,false,false,false,false,false,false,false,false |
  false,false,false,false,false,false,false,false,false,false,false,false,true,false,false,false,true,false,false  |
  false,false,true,false,false,false,false,false,true,false,false,false,false,false,false,false,false,false,false  |
  true,false,false,false,false,false,false,false,false,false,false,false,false,false,false,true,false,false,false  |
  true,false,false,false,false,false,true,false,false,false,false,false,false,false,false,false,false,false,false  |
  false,false,false,false,false,false,false,false,false,false,false,false,false,true,false,false,false,false,false |
  true,false,false,false,false,false,false,false,false,false,false,false,false,true,false,false,false,false,false  |
  false,true,false,false,false,false,false,false,false,false,false,false,false,false,false,false,false,true,false  |
  true,false,false,true,false,true,false,false,false,false,false,false,false,false,false,false,false,false,false   |
  false,false,false,false,false,false,false,false,false,true,true,false,false,false,false,false,false,true,false   |
  false,false,false,false,false,false,false,false,false,false,false,false,false,false,false,true,false,false,false |
  false,false,false,false,false,false,false,true,false,false,false,false,false,false,true,false,false,false,false  |
  false,false,false,false,false,true,false,false,false,false,false,false,false,false,false,false,false,false,false |
  false,false,false,false,false,false,false,false,false,false,false,true,false,true,false,false,false,false,false  |
  false,false,false,true,false,false,false,false,false,false,false,false,false,false,false,false,false,false,false |
|];